57246
9, 34, 53, 21, 23, 17, 48, 49, 55, 26, 28, 6, 3, 43, 13, 32, 41, 24, 50, 20, 7, 40, 51, 37, 5, 35, 38, 8, 44, 19, 54, 47, 30, 4, 18, 12, 10, 22, 29, 16, 39, 46, 36, 15, 25, 11, 31, 27, 1, 33, 42, 45, 52, 2, 14
